%nprocshared=5
%mem=5GB
%chk=/data/huangdeqing/azm/QM/nn/S0_cis/chk/+40.chk
#p opt=(calcfc,MaxStep=50,tight,gdiis) freq=(HPModes,SaveNormalModes) scf=tight Pop=Full casscf(6,4)/6-31+g(d) geom=connectivity nosymm field=y+40

S0_cis_nn_+40

0 1
N  -0.60217709   -0.03579554   1.28527700
N  0.63769791   -0.03579554   1.28527700
C  1.37949802   0.01003466   0.02225100
H  2.42943915   0.06405512   0.26826000
H  1.20030085   -0.89042390   -0.55795100
H  1.11690211   0.87236630   -0.57941600
C  -1.34397798   0.01003225   0.02225200
H  -1.08139489   0.87237362   -0.57940800
H  -1.16476815   -0.89041818   -0.55795800
H  -2.39391985   0.06403679   0.26826200

 1 2 2.0 7 1.0
 2 3 1.0
 3 4 1.0 5 1.0 6 1.0
 4
 5
 6
 7 8 1.0 9 1.0 10 1.0
 8
 9
 10

